<?xml version = "1.0" standalone="yes"?>
<!-- This file has been generated by DOcplex version 2.23.222  -->
<CPLEXSolution version="1.0">
 <header
   problemName="CVRP"
   objectiveValue="14072"
  />
 <variables>
  <variable name="x_0_1" index="0" value="1.00000"/>
  <variable name="x_0_3" index="2" value="1.00000"/>
  <variable name="x_0_4" index="3" value="1.00000"/>
  <variable name="x_0_9" index="8" value="1.00000"/>
  <variable name="x_0_12" index="11" value="1.00000"/>
  <variable name="x_0_13" index="12" value="1.00000"/>
  <variable name="x_0_16" index="15" value="1.00000"/>
  <variable name="x_0_19" index="18" value="1.00000"/>
  <variable name="x_1_14" index="32" value="1.00000"/>
  <variable name="x_2_10" index="47" value="1.00000"/>
  <variable name="x_3_15" index="71" value="1.00000"/>
  <variable name="x_4_7" index="82" value="1.00000"/>
  <variable name="x_5_0" index="95" value="1.00000"/>
  <variable name="x_6_0" index="114" value="1.00000"/>
  <variable name="x_7_11" index="143" value="1.00000"/>
  <variable name="x_8_0" index="152" value="1.00000"/>
  <variable name="x_9_6" index="177" value="1.00000"/>
  <variable name="x_10_0" index="190" value="1.00000"/>
  <variable name="x_11_0" index="209" value="1.00000"/>
  <variable name="x_12_18" index="245" value="1.00000"/>
  <variable name="x_13_8" index="255" value="1.00000"/>
  <variable name="x_14_0" index="266" value="1.00000"/>
  <variable name="x_15_2" index="287" value="1.00000"/>
  <variable name="x_16_0" index="304" value="1.00000"/>
  <variable name="x_17_0" index="323" value="1.00000"/>
  <variable name="x_18_17" index="359" value="1.00000"/>
  <variable name="x_19_5" index="366" value="1.00000"/>
  <variable name="u_1" index="380" value="13.00000"/>
  <variable name="u_2" index="381" value="58.00000"/>
  <variable name="u_3" index="382" value="6.00000"/>
  <variable name="u_4" index="383" value="8.00000"/>
  <variable name="u_5" index="384" value="63.00000"/>
  <variable name="u_6" index="385" value="63.00000"/>
  <variable name="u_7" index="386" value="35.00000"/>
  <variable name="u_8" index="387" value="63.00000"/>
  <variable name="u_9" index="388" value="47.00000"/>
  <variable name="u_10" index="389" value="63.00000"/>
  <variable name="u_11" index="390" value="63.00000"/>
  <variable name="u_12" index="391" value="27.00000"/>
  <variable name="u_13" index="392" value="40.00000"/>
  <variable name="u_14" index="393" value="55.00000"/>
  <variable name="u_15" index="394" value="29.00000"/>
  <variable name="u_16" index="395" value="56.00000"/>
  <variable name="u_17" index="396" value="62.00000"/>
  <variable name="u_18" index="397" value="41.00000"/>
  <variable name="u_19" index="398" value="47.00000"/>
 </variables>
</CPLEXSolution>
